871, 0, 0, 86, 4
872, 0, 1, 32, 0
873, 0, 2, 51, 1
874, 0, 3, 66, 2
875, 0, 4, 53, 3
876, 1, 0, 38, 1
877, 1, 1, 44, 2
878, 1, 2, 81, 3
879, 1, 3, 79, 4
880, 1, 4, 67, 0
881, 2, 0, 38, 3
882, 2, 1, 64, 4
883, 2, 2, 58, 0
884, 2, 3, 98, 1
885, 2, 4, 61, 2
886, 3, 0, 31, 3
887, 3, 1, 68, 4
888, 3, 2, 40, 2
889, 3, 3, 76, 0
890, 3, 4, 95, 1
